************************************************************************
file with basedata            : mm42_.bas
initial value random generator: 838212127
************************************************************************
projects                      :  1
jobs (incl. supersource/sink ):  12
horizon                       :  75
RESOURCES
  - renewable                 :  2   R
  - nonrenewable              :  2   N
  - doubly constrained        :  0   D
************************************************************************
PROJECT INFORMATION:
pronr.  #jobs rel.date duedate tardcost  MPM-Time
    1     10      0       10        2       10
************************************************************************
PRECEDENCE RELATIONS:
jobnr.    #modes  #successors   successors
   1        1          3           2   3   4
   2        3          2           5   7
   3        3          2           6   9
   4        3          2           6  10
   5        3          1          11
   6        3          1           8
   7        3          3           8   9  10
   8        3          1          11
   9        3          1          12
  10        3          1          12
  11        3          1          12
  12        1          0        
************************************************************************
REQUESTS/DURATIONS:
jobnr. mode duration  R 1  R 2  N 1  N 2
------------------------------------------------------------------------
  1      1     0       0    0    0    0
  2      1     2       8    1    2    0
         2     3       8    1    0    7
         3     4       5    1    0    7
  3      1     1       5    8    5    0
         2     3       5    5    2    0
         3     4       5    1    0    7
  4      1     1       9    6    6    0
         2     8       6    5    2    0
         3     8       5    6    1    0
  5      1     1       7    4   10    0
         2     7       5    3    0    5
         3    10       1    3    7    0
  6      1     1       4    4    9    0
         2     3       4    4    0    7
         3     5       4    4    0    4
  7      1     3       8   10    8    0
         2     7       8    9    5    0
         3     8       6    9    0    3
  8      1     1       7    4    6    0
         2     1       5    4    0    7
         3    10       5    3    7    0
  9      1     4       6    6    0    6
         2     7       6    5    7    0
         3     9       5    3    5    0
 10      1     3       9    9    5    0
         2     3      10   10    4    0
         3     8       4    7    0    3
 11      1     4       6    9    4    0
         2     6       5    8    4    0
         3     9       4    6    2    0
 12      1     0       0    0    0    0
************************************************************************
RESOURCEAVAILABILITIES:
  R 1  R 2  N 1  N 2
   15   17   33   23
************************************************************************
MAXIMAL LAGS:
from  to  type  delay
    1   12   ES      0
    1    2   ES      0
    2   12   ES      0
    1    3   ES      0
    3   12   ES      0
    1    4   ES      0
    4   12   ES      0
    1    5   ES      0
    5   12   ES      0
    1    6   ES      0
    6   12   ES      0
    1    7   ES      0
    7   12   ES      0
    1    8   ES      0
    8   12   ES      0
    1    9   ES      0
    9   12   ES      0
    1   10   ES      0
   10   12   ES      0
    1   11   ES      0
   11   12   ES      0
    1   12   ES      0
    2    5   SS      7
    2    5   SE      7
    2    5   ES    -10
    2    5   EE     -8
    2    7   SS      6
    2    7   SE      8
    2    7   ES      3
    2    7   EE     -9
    3    6   SS    -12
    3    6   SE     -8
    3    6   ES     12
    3    6   EE     -3
    3    9   SS      5
    3    9   SE    -10
    3    9   ES      3
    3    9   EE     -9
    4    6   SS      2
    4    6   SE     -2
    4    6   ES     -7
    4    6   EE     -3
    4   10   SS     -7
    4   10   SE    -10
    4   10   ES     -4
    4   10   EE      6
    5   11   SS     -1
    5   11   SE     -1
    5   11   ES    -10
    5   11   EE    -10
    6    8   SS     -7
    6    8   SE     10
    6    8   ES     12
    6    8   EE      2
    7    8   SS     -4
    7    8   SE      3
    7    8   ES     -4
    7    8   EE     12
    7    9   SS      2
    7    9   SE      8
    7    9   ES     -8
    7    9   EE     -9
    7   10   SS      6
    7   10   SE      3
    7   10   ES    -11
    7   10   EE     -1
    8   11   SS     -3
    8   11   SE      0
    8   11   ES      1
    8   11   EE      7
************************************************************************
